c ---- [ banner ] ------------------------------------------------------------
c
c Kissat SAT Solver
c 
c Copyright (c) 2021-2024 Armin Biere University of Freiburg
c Copyright (c) 2019-2021 Armin Biere Johannes Kepler University Linz
c 
c Version 4.0.1 43f02cf3e992cb44653b35e5cb26f93281552ae0
c gcc (Ubuntu 13.2.0-23ubuntu4) 13.2.0 -W -Wall -O3 -DNDEBUG
c Thu Sep 12 12:27:46 CEST 2024 Linux abryzen9 6.8.0-41-generic x86_64
c
c ---- [ parsing ] -----------------------------------------------------------
c
c opened and reading DIMACS file:
c
c   /data/artifact/AMulet2.0_artifact/exp4/cnf_sopb_64/64_64_U_SP_DT_CL_GenMul_sopb.cnf
c
c parsed 'p cnf 35465 156013' header
c closing input after reading 3114061 bytes (3 MB)
c finished parsing after 0.04 seconds
c
c ---- [ options ] -----------------------------------------------------------
c
c --stable=0                       (different from default '1')
c
c ---- [ solving ] -----------------------------------------------------------
c
c  seconds switched rate     size/glue tier1  binary           remaining
c         MB reductions conflicts size  tier2     irredundant
c          level restarts redundant glue  trail           variables
c
c *  0.04 13 0 0 0  0 0   0   0 0.0 0 0 0 0 0% 25152 130859 35462 100%
c (  0.06 14 0 0 0  0 0   0   0 0.0 0 0 0 0 0% 25152 130859 35462 100%
c .  0.07 14 0 0 0  0 0   0   0 0.0 0 0 0 0 0% 25148 130859 35462 100%
c c  0.14 23 0 0 0  0 0   0   0 0.0 0 0 0 0 0% 29489 122415 33352 94%
c d  0.15 23 0 0 0  0 0   0   0 0.0 0 0 0 0 0% 25269 122415 33352 94%
c =  0.20 23 0 0 0  0 0   0   0 0.0 0 0 0 0 0% 25291 122415 33341 94%
c d  0.20 23 0 0 0  0 0   0   0 0.0 0 0 0 0 0% 25269 122415 33341 94%
c f  0.31 25 0 0 0  0 0   0   0 0.0 0 0 0 0 0% 30509 112558 36689 103%
c e  0.50 29 0 0 0  0 0   0   0 0.0 0 0 0 0 0% 19701 123674 25024 71%
c )  0.50 29 0 0 0  0 0   0   0 0.0 0 0 0 0 0% 19701 123674 25024 71%
c {  0.51 29 0 0 0  0 0   0   0 0.0 0 0 2 6 0% 19701 123674 25024 71%
c -  0.75 30 197 0 1 324 69 1001 603 3.9 20 5 3 11 22% 19842 123674 25024 71%
c -  0.98 30 192 0 2 472 54 2002 1254 4.7 29 6 3 11 25% 19878 123674 25024 71%
c c  1.18 30 222 0 2 561 55 2512 1622 5.5 35 6 3 11 25% 20161 123537 24997 70%
c d  1.19 30 222 0 2 561 55 2512 1607 5.5 35 6 3 11 25% 20107 123537 24997 70%
c u  1.21 30 222 0 2 561 55 2512 1354 5.5 35 6 3 11 25% 20118 123537 24997 70%
c v  1.23 30 222 0 2 561 55 2512 1147 5.5 35 6 3 11 25% 20118 123537 24997 70%
c w  1.25 30 222 0 2 561 55 2512 1146 5.5 35 6 3 11 25% 20118 123537 24997 70%
c x  1.27 30 222 0 2 561 55 2512 1146 5.5 35 6 3 11 25% 20122 123478 24997 70%
c =  1.35 30 222 0 2 561 55 2512 1146 5.5 35 6 3 11 25% 20132 123478 24992 70%
c
c  seconds   switched   rate       size/glue tier1     binary           remaining
c         MB  reductions conflicts       size  tier2       irredundant
c           level restarts    redundant    glue    trail           variables
c
c d  1.36 30 222 0 2 561 55 2512 1146 5.5 35 6 3 11 25% 20113 123478 24990 70%
c t  1.37 30 222 0 2 561 55 2512 1146 5.5 35 6 3 11 25% 20109 123478 24990 70%
c f  1.40 30 222 0 2 561 55 2512 1146 5.5 35 6 3 11 25% 20949 120871 26047 73%
c u  1.46 30 222 0 2 561 55 2512 1101 5.5 35 6 3 11 25% 20952 120871 26047 73%
c v  1.47 30 222 0 2 561 55 2512 1065 5.5 35 6 3 11 25% 20952 120871 26047 73%
c w  1.51 30 222 0 2 561 55 2512 1065 5.5 35 6 3 11 25% 20952 120871 26047 73%
c x  1.53 30 222 0 2 561 55 2512 1065 5.5 35 6 3 11 25% 20954 120848 26047 73%
c =  1.61 30 222 0 2 561 55 2512 1065 5.5 35 6 3 11 25% 21012 120848 26018 73%
c d  1.61 30 222 0 2 561 55 2512 1065 5.5 35 6 3 11 25% 20925 120848 26018 73%
c f  1.67 30 222 0 2 561 55 2512 1065 5.5 35 6 3 11 25% 22092 118840 26666 75%
c -  1.87 30 271 0 3 681 49 3417 1532 5.7 39 7 3 11 27% 22138 118840 26666 75%
c -  2.24 30 289 0 4 896 43 5150 2653 4.9 34 7 3 11 28% 22187 118839 26666 75%
c -  2.73 30 330 0 5 1109 40 7150 3733 5.0 35 7 3 11 29% 22284 118838 26666 75%
c d  2.79 30 349 0 5 1120 39 7734 4215 4.9 34 7 3 11 30% 22181 118837 26605 75%
c u  2.84 30 349 0 5 1120 39 7734 3541 4.9 34 7 3 11 30% 22200 118837 26605 75%
c v  2.89 30 349 0 5 1120 39 7734 3221 4.9 34 7 3 11 30% 22201 118837 26605 75%
c w  2.91 30 349 0 5 1120 39 7734 3218 4.9 34 7 3 11 30% 22201 118837 26605 75%
c x  2.95 30 349 0 5 1120 39 7734 3218 4.9 34 7 3 11 30% 22202 118804 26605 75%
c =  3.13 30 349 0 5 1120 39 7734 3218 4.9 34 7 3 11 30% 22296 118804 26558 75%
c d  3.15 30 349 0 5 1120 39 7734 3218 4.9 34 7 3 11 30% 22151 118804 26555 75%
c
c  seconds   switched    rate       size/glue tier1     binary           remaining
c         MB  reductions  conflicts       size  tier2       irredundant
c           level  restarts    redundant    glue    trail           variables
c
c t  3.17 30 349 0 5 1120 39 7734 3218 4.9 34 7 3 11 30% 22146 118804 26555 75%
c f  3.23 30 349 0 5 1120 39 7734 3218 4.9 34 7 3 11 30% 23912 116088 27459 77%
c c  3.32 30 349 0 5 1120 39 7734 3218 4.9 34 7 3 11 30% 23918 116076 27457 77%
c d  3.33 30 349 0 5 1120 39 7734 3218 4.9 34 7 3 11 30% 23914 116076 27457 77%
c u  3.37 30 349 0 5 1120 39 7734 3105 4.9 34 7 3 11 30% 23920 116076 27457 77%
c v  3.41 30 349 0 5 1120 39 7734 3019 4.9 34 7 3 11 30% 23920 116076 27457 77%
c w  3.43 30 349 0 5 1120 39 7734 3014 4.9 34 7 3 11 30% 23920 116076 27457 77%
c x  3.48 30 349 0 5 1120 39 7734 3014 4.9 34 7 3 11 30% 23926 116001 27457 77%
c =  3.66 30 349 0 5 1120 39 7734 3014 4.9 34 7 3 11 30% 23968 116001 27436 77%
c d  3.67 30 349 0 5 1120 39 7734 3013 4.9 34 7 3 11 30% 23915 116001 27435 77%
c t  3.69 30 349 0 5 1120 39 7734 3013 4.9 34 7 3 11 30% 23877 116001 27435 77%
c f  3.75 30 349 0 5 1120 39 7734 3013 4.9 34 7 3 11 30% 25498 113518 28265 80%
c -  4.22 30 346 0 6 1307 39 9386 3793 5.1 36 7 2 10 30% 25545 113518 28265 80%
c o  4.28 30 347 0 6 1324 37 10015 4289 5.0 34 7 2 10 29% 25569 113518 28265 80%
c -  4.63 30 331 0 7 1453 36 11835 5096 4.8 35 7 2 10 30% 25592 113518 28265 80%
c s  4.90 30 337 0 7 1589 38 12555 5773 4.9 36 7 2 10 30% 25600 112395 28265 80%
c e  5.05 30 337 0 7 1589 38 12555 5773 4.9 36 7 2 10 30% 24111 113489 26931 76%
c s  5.06 30 337 0 7 1589 38 12555 5773 4.9 36 7 2 10 30% 24255 112465 26931 76%
c e  5.08 30 337 0 7 1589 38 12555 5773 4.9 36 7 2 10 30% 24075 112615 26824 76%
c ^  5.08 30 337 0 7 1589 38 12555 5773 4.9 36 7 2 10 30% 24075 112615 26824 76%
c
c  seconds   switched    rate        size/glue tier1     binary           remaining
c         MB  reductions   conflicts       size  tier2       irredundant
c           level  restarts     redundant    glue    trail           variables
c
c -  5.71 30 324 0 8 1780 38 14480 6140 4.8 37 8 2 10 30% 24110 112615 26824 76%
c d  6.17 30 329 0 8 1915 37 15839 7395 4.9 37 8 2 10 31% 23801 112615 26633 75%
c u  6.23 30 329 0 8 1915 37 15839 6629 4.9 37 8 2 10 31% 23814 112615 26633 75%
c v  6.32 30 329 0 8 1915 37 15839 5637 4.9 37 8 2 10 31% 23816 112615 26633 75%
c w  6.38 30 329 0 8 1915 37 15839 5636 4.9 37 8 2 10 31% 23816 112615 26633 75%
c x  6.43 30 329 0 8 1915 37 15839 5636 4.9 37 8 2 10 31% 23818 112573 26633 75%
c =  6.73 30 329 0 8 1915 37 15839 5636 4.9 37 8 2 10 31% 23966 112573 26559 75%
c d  6.74 30 329 0 8 1915 37 15839 5629 4.9 37 8 2 10 31% 23751 112573 26556 75%
c t  6.77 30 329 0 8 1915 37 15839 5629 4.9 37 8 2 10 31% 23687 112573 26556 75%
c f  6.84 30 329 0 8 1915 37 15839 5629 4.9 37 8 2 10 31% 23706 111564 26785 76%
c u  6.90 30 329 0 8 1915 37 15839 5476 4.9 37 8 2 10 31% 23708 111564 26785 76%
c v  6.96 30 329 0 8 1915 37 15839 5346 4.9 37 8 2 10 31% 23708 111564 26785 76%
c w  7.02 30 329 0 8 1915 37 15839 5344 4.9 37 8 2 10 31% 23708 111564 26785 76%
c x  7.06 30 329 0 8 1915 37 15839 5344 4.9 37 8 2 10 31% 23715 111515 26785 76%
c =  7.31 30 329 0 8 1915 37 15839 5344 4.9 37 8 2 10 31% 23941 111515 26672 75%
c d  7.32 30 329 0 8 1915 37 15839 5343 4.9 37 8 2 10 31% 23657 111515 26672 75%
c t  7.35 30 329 0 8 1915 37 15839 5343 4.9 37 8 2 10 31% 23628 111515 26672 75%
c f  7.37 30 329 0 8 1915 37 15839 5343 4.9 37 8 2 10 31% 23628 111504 26675 75%
c -  7.60 30 339 0 9 2020 36 17314 5721 4.8 37 8 2 10 31% 23666 111504 26675 75%
c o  8.13 30 346 0 9 2213 35 20016 8010 4.8 36 8 2 10 31% 23755 111504 26675 75%
c
c  seconds   switched     rate        size/glue tier1     binary           remaining
c         MB   reductions   conflicts       size  tier2       irredundant
c           level   restarts     redundant    glue    trail           variables
c
c -  8.20 30 342 0 10 2238 35 20315 7261 4.8 36 8 2 10 31% 23756 111504 26675 75%
c -  8.96 30 336 0 11 2538 34 23478 8847 4.6 37 8 2 10 31% 23796 111504 26675 75%
c s  9.20 30 333 0 11 2612 33 25096 10268 4.6 36 8 2 10 31% 23883 110675 26675 75%
c e  9.31 30 333 0 11 2612 33 25096 10268 4.6 36 8 2 10 31% 18527 118386 23560 66%
c 2  9.32 30 333 0 11 2612 33 25096 10268 4.6 36 8 2 10 31% 18524 118386 23560 66%
c s  9.33 30 333 0 11 2612 33 25096 10268 4.6 36 8 2 10 31% 18659 117429 23560 66%
c e  9.35 30 333 0 11 2612 33 25096 10268 4.6 36 8 2 10 31% 18516 117615 23494 66%
c ^  9.35 30 333 0 11 2612 33 25096 10268 4.6 36 8 2 10 31% 18516 117615 23494 66%
c -  9.75 30 329 0 12 2797 33 26796 8649 4.6 37 8 2 9 31% 18552 117615 23494 66%
c c  9.85 30 328 0 12 2818 33 27001 8827 4.6 37 8 2 9 31% 18614 117462 23469 66%
c d  9.85 30 328 0 12 2818 33 27001 8808 4.6 37 8 2 9 31% 18292 117462 23309 66%
c u  9.89 30 328 0 12 2818 33 27001 7820 4.6 37 8 2 9 31% 18307 117462 23309 66%
c v  9.93 30 328 0 12 2818 33 27001 6874 4.6 37 8 2 9 31% 18307 117462 23309 66%
c w  9.96 30 328 0 12 2818 33 27001 6871 4.6 37 8 2 9 31% 18307 117462 23309 66%
c x 10.03 30 328 0 12 2818 33 27001 6871 4.6 37 8 2 9 31% 18309 117386 23309 66%
c = 10.28 30 328 0 12 2818 33 27001 6871 4.6 37 8 2 9 31% 19229 117384 22849 64%
c d 10.28 30 328 0 12 2818 33 27001 6833 4.6 37 8 2 9 31% 18228 117384 22848 64%
c t 10.30 30 328 0 12 2818 33 27001 6833 4.6 37 8 2 9 31% 18137 117384 22848 64%
c f 10.38 30 328 0 12 2818 33 27001 6833 4.6 37 8 2 9 31% 18206 116763 22962 65%
c u 10.42 30 328 0 12 2818 33 27001 6581 4.6 37 8 2 9 31% 18209 116763 22962 65%
c
c  seconds   switched     rate        size/glue tier1    binary           remaining
c         MB   reductions   conflicts       size  tier2      irredundant
c           level   restarts     redundant    glue   trail           variables
c
c v 10.45 30 328 0 12 2818 33 27001 6449 4.6 37 8 2 9 31% 18209 116763 22962 65%
c w 10.48 30 328 0 12 2818 33 27001 6446 4.6 37 8 2 9 31% 18209 116763 22962 65%
c = 10.73 30 328 0 12 2818 33 27001 6446 4.6 37 8 2 9 31% 19653 116747 22240 63%
c d 10.73 30 328 0 12 2818 33 27001 6376 4.6 37 8 2 9 31% 18118 116747 22240 63%
c t 10.75 30 328 0 12 2818 33 27001 6376 4.6 37 8 2 9 31% 18108 116747 22240 63%
c - 11.17 30 326 0 13 2989 32 30261 8360 4.5 35 8 2 9 31% 18160 116746 22240 63%
c - 11.77 30 315 0 14 3277 31 33866 10169 4.4 35 8 2 9 30% 18280 116745 22240 63%
c - 12.43 30 315 0 15 3595 31 37607 11748 4.4 36 8 2 9 30% 18350 116744 22240 63%
c o 12.96 30 310 0 15 3813 30 40056 13850 4.5 37 8 2 9 30% 18416 116744 22240 63%
c c 13.27 30 307 0 15 3912 30 41370 15000 4.5 37 8 2 9 30% 18496 116094 22125 62%
c d 13.28 30 307 0 15 3912 30 41370 14852 4.5 37 8 2 9 30% 18253 116094 22117 62%
c u 13.34 30 307 0 15 3912 30 41370 12720 4.5 37 8 2 9 30% 18283 116094 22117 62%
c v 13.40 30 307 0 15 3912 30 41370 11715 4.5 37 8 2 9 30% 18285 116094 22117 62%
c w 13.45 30 307 0 15 3912 30 41370 11715 4.5 37 8 2 9 30% 18285 116094 22117 62%
c x 13.50 30 307 0 15 3912 30 41370 11715 4.5 37 8 2 9 30% 18286 115652 22117 62%
c = 13.79 30 307 0 15 3912 30 41370 11715 4.5 37 8 2 9 30% 22086 115652 20217 57%
c d 13.79 30 307 0 15 3912 30 41370 11230 4.5 37 8 2 9 30% 18061 115652 20217 57%
c t 13.82 30 307 0 15 3912 30 41370 11230 4.5 37 8 2 9 30% 18021 115652 20217 57%
c f 13.87 30 307 0 15 3912 30 41370 11230 4.5 37 8 2 9 30% 18064 115527 20239 57%
c u 13.96 30 307 0 15 3912 30 41370 10593 4.5 37 8 2 9 30% 18065 115527 20239 57%
c
c  seconds   switched     rate        size/glue tier1    binary           remaining
c         MB   reductions   conflicts       size  tier2      irredundant
c           level   restarts     redundant    glue   trail           variables
c
c v 14.01 30 307 0 15 3912 30 41370 9864 4.5 37 8 2 9 30% 18067 115527 20239 57%
c w 14.08 30 307 0 15 3912 30 41370 9863 4.5 37 8 2 9 30% 18067 115527 20239 57%
c x 14.13 30 307 0 15 3912 30 41370 9863 4.5 37 8 2 9 30% 18078 113027 20239 57%
c = 14.38 30 307 0 15 3912 30 41370 9863 4.5 37 8 2 9 30% 18468 113027 20044 57%
c d 14.39 30 307 0 15 3912 30 41370 9818 4.5 37 8 2 9 30% 18044 113027 20044 57%
c t 14.40 30 307 0 15 3912 30 41370 9818 4.5 37 8 2 9 30% 18043 113027 20044 57%
c f 14.42 30 307 0 15 3912 30 41370 9818 4.5 37 8 2 9 30% 18044 113021 20045 57%
c - 14.45 30 308 0 16 3921 30 41480 8699 4.5 37 8 2 8 30% 18046 113021 20045 57%
c - 14.84 30 304 0 17 4117 29 45480 10632 4.4 35 8 2 8 30% 18106 113020 20045 57%
c - 15.32 30 308 0 18 4367 28 49605 12692 4.3 34 8 2 8 30% 18154 113019 20045 57%
c s 15.79 30 299 0 18 4606 28 52285 14882 4.3 34 8 2 8 29% 18229 96841 20045 57%
c e 15.89 30 299 0 18 4606 28 52285 14882 4.3 34 8 2 8 29% 17070 99248 19102 54%
c s 15.90 30 299 0 18 4606 28 52285 14882 4.3 34 8 2 8 29% 17197 97941 19102 54%
c e 15.92 30 299 0 18 4606 28 52285 14882 4.3 34 8 2 8 29% 17078 98143 19041 54%
c ^ 15.92 30 299 0 18 4606 28 52285 14882 4.3 34 8 2 8 29% 17078 98143 19041 54%
c - 16.12 30 295 0 19 4686 28 53847 13379 4.2 33 8 2 7 29% 17107 98143 19041 54%
c - 16.81 30 289 0 20 5021 28 58208 14997 4.2 33 8 2 7 29% 17184 98143 19041 54%
c d 16.96 30 290 0 20 5078 28 59039 15613 4.2 33 8 2 7 29% 17120 98141 19000 54%
c u 17.05 30 290 0 20 5078 28 59039 13072 4.2 33 8 2 7 29% 17146 98141 19000 54%
c v 17.09 30 290 0 20 5078 28 59039 11621 4.2 33 8 2 7 29% 17151 98141 19000 54%
c
c  seconds   switched     rate         size/glue tier1    binary          remaining
c         MB   reductions   conflicts        size  tier2      irredundant
c           level   restarts      redundant    glue   trail          variables
c
c w 17.13 30 290 0 20 5078 28 59039 11618 4.2 33 8 2 7 29% 17151 98141 19000 54%
c x 17.19 30 290 0 20 5078 28 59039 11618 4.2 33 8 2 7 29% 17158 98093 19000 54%
c = 17.59 30 290 0 20 5078 28 59039 11618 4.2 33 8 2 7 29% 17976 98093 18591 52%
c d 17.61 30 290 0 20 5078 28 59039 11366 4.2 33 8 2 7 29% 17097 98093 18580 52%
c t 17.65 30 290 0 20 5078 28 59039 11366 4.2 33 8 2 7 29% 17048 98093 18580 52%
c f 17.73 30 290 0 20 5078 28 59039 11366 4.2 33 8 2 7 29% 16984 97859 18625 53%
c c 17.84 30 290 0 20 5078 28 59039 11287 4.2 33 8 2 7 29% 17171 97201 18544 52%
c d 17.85 30 290 0 20 5078 28 59039 11287 4.2 33 8 2 7 29% 17009 97201 18544 52%
c u 17.97 30 290 0 20 5078 28 59039 10597 4.2 33 8 2 7 29% 17028 97201 18544 52%
c v 18.06 30 290 0 20 5078 28 59039 10343 4.2 33 8 2 7 29% 17029 97201 18544 52%
c w 18.16 30 290 0 20 5078 28 59039 10313 4.2 33 8 2 7 29% 17029 97201 18544 52%
c x 18.28 30 290 0 20 5078 28 59039 10313 4.2 33 8 2 7 29% 17038 97067 18544 52%
c = 18.57 30 290 0 20 5078 28 59039 10313 4.2 33 8 2 7 29% 18678 97067 17724 50%
c d 18.58 30 290 0 20 5078 28 59039 9966 4.2 33 8 2 7 29% 16968 97067 17723 50%
c t 18.60 30 290 0 20 5078 28 59039 9966 4.2 33 8 2 7 29% 16941 97067 17723 50%
c f 18.64 30 290 0 20 5078 28 59039 9966 4.2 33 8 2 7 29% 16941 97057 17725 50%
c - 18.93 30 284 0 21 5209 27 62680 11431 4.1 32 8 2 7 29% 17012 97057 17725 50%
c - 20.10 30 278 0 22 5676 27 67264 13815 4.1 32 8 2 7 29% 17060 97057 17725 50%
c o 20.94 30 272 0 22 5938 27 70063 16230 4.0 32 8 2 7 29% 17100 97057 17725 50%
c - 22.00 30 269 0 23 6263 27 71955 15795 4.0 33 8 2 7 29% 17114 97057 17725 50%
c
c  seconds   switched     rate         size/glue tier1    binary          remaining
c         MB   reductions   conflicts        size  tier2      irredundant
c           level   restarts      redundant    glue   trail          variables
c
c - 22.73 30 267 0 24 6461 26 76753 17334 3.9 32 8 2 7 29% 17155 97057 17725 50%
c c 23.74 30 266 0 24 6735 26 80102 20258 3.9 31 8 2 7 29% 17295 96196 17595 50%
c d 23.75 30 266 0 24 6735 26 80102 19821 3.9 31 8 2 7 29% 17035 96196 17595 50%
c u 23.91 30 266 0 24 6735 26 80102 16893 3.9 31 8 2 7 29% 17067 96196 17595 50%
c v 24.02 30 266 0 24 6735 26 80102 15797 3.9 31 8 2 7 29% 17068 96196 17595 50%
c w 24.10 30 266 0 24 6735 26 80102 15795 3.9 31 8 2 7 29% 17068 96196 17595 50%
c x 24.21 30 266 0 24 6735 26 80102 15795 3.9 31 8 2 7 29% 17078 95982 17595 50%
c = 24.65 30 266 0 24 6735 26 80102 15795 3.9 31 8 2 7 29% 17516 95982 17376 49%
c d 24.66 30 266 0 24 6735 26 80102 15431 3.9 31 8 2 7 29% 16983 95982 17372 49%
c t 24.70 30 266 0 24 6735 26 80102 15431 3.9 31 8 2 7 29% 16920 95982 17372 49%
c f 24.73 30 266 0 24 6735 26 80102 15431 3.9 31 8 2 7 29% 16918 95975 17373 49%
c c 24.83 30 266 0 24 6735 26 80102 15397 3.9 31 8 2 7 29% 16932 95943 17369 49%
c d 24.84 30 266 0 24 6735 26 80102 15397 3.9 31 8 2 7 29% 16924 95943 17369 49%
c u 24.97 30 266 0 24 6735 26 80102 14562 3.9 31 8 2 7 29% 16935 95943 17369 49%
c v 25.10 30 266 0 24 6735 26 80102 13596 3.9 31 8 2 7 29% 16938 95943 17369 49%
c w 25.20 30 266 0 24 6735 26 80102 13593 3.9 31 8 2 7 29% 16938 95943 17369 49%
c x 25.31 30 266 0 24 6735 26 80102 13593 3.9 31 8 2 7 29% 16948 95439 17369 49%
c = 25.83 30 266 0 24 6735 26 80102 13593 3.9 31 8 2 7 29% 17318 95439 17184 48%
c d 25.85 30 266 0 24 6735 26 80102 13298 3.9 31 8 2 7 29% 16928 95439 17183 48%
c t 25.88 30 266 0 24 6735 26 80102 13298 3.9 31 8 2 7 29% 16907 95439 17183 48%
c
c  seconds   switched     rate         size/glue tier1    binary          remaining
c         MB   reductions   conflicts        size  tier2      irredundant
c           level   restarts      redundant    glue   trail          variables
c
c f 25.91 30 266 0 24 6735 26 80102 13298 3.9 31 8 2 7 29% 16909 95432 17184 48%
c - 26.38 30 263 0 25 6883 26 81651 12773 3.9 31 8 2 7 29% 16940 95430 17184 48%
c - 28.36 30 257 0 26 7498 26 86651 15162 3.9 32 8 2 7 30% 16982 95430 17184 48%
c - 29.91 30 253 0 27 7957 26 91750 17296 3.9 32 8 2 7 30% 17060 95430 17184 48%
c s 30.99 30 249 0 27 8283 25 95965 20957 3.8 31 8 2 7 30% 17137 85887 17184 48%
c e 31.17 30 249 0 27 8283 25 95965 20957 3.8 31 8 2 7 30% 13532 95585 15090 43%
c 2 31.17 30 249 0 27 8283 25 95965 20957 3.8 31 8 2 7 30% 13528 95585 15090 43%
c s 31.21 30 249 0 27 8283 25 95965 20957 3.8 31 8 2 7 30% 13788 91068 15090 43%
c e 31.27 30 249 0 27 8283 25 95965 20957 3.8 31 8 2 7 30% 13611 91545 14986 42%
c ^ 31.27 30 249 0 27 8283 25 95965 20957 3.8 31 8 2 7 30% 13611 91545 14986 42%
c - 31.59 30 248 0 28 8389 25 96947 15269 3.8 31 8 2 7 30% 13631 91545 14986 42%
c - 33.20 30 241 0 29 8940 25 102239 17536 3.8 31 8 2 7 30% 13713 91545 14986 42%
c d 34.19 30 239 0 29 9326 26 104714 19690 3.7 32 8 2 7 30% 13644 91543 14945 42%
c u 34.36 30 239 0 29 9326 26 104714 16275 3.7 32 8 2 7 30% 13679 91543 14945 42%
c v 34.43 30 239 0 29 9326 26 104714 14318 3.7 32 8 2 7 30% 13683 91543 14945 42%
c w 34.48 30 239 0 29 9326 26 104714 14317 3.7 32 8 2 7 30% 13683 91543 14945 42%
c x 34.66 30 239 0 29 9326 26 104714 14314 3.7 32 8 2 7 30% 13717 90604 14945 42%
c = 35.45 30 239 0 29 9326 26 104714 14314 3.7 32 8 2 7 30% 13805 90604 14901 42%
c d 35.46 30 239 0 29 9326 26 104714 14239 3.7 32 8 2 7 30% 13673 90604 14887 42%
c t 35.49 30 239 0 29 9326 26 104714 14239 3.7 32 8 2 7 30% 13493 90604 14887 42%
c
c  seconds   switched     rate          size/glue tier1    binary          remaining
c         MB   reductions   conflicts         size  tier2      irredundant
c           level   restarts       redundant    glue   trail          variables
c
c f 35.60 30 239 0 29 9326 26 104714 14239 3.7 32 8 2 7 30% 13492 90246 14915 42%
c c 35.67 30 239 0 29 9326 26 104714 14176 3.7 32 8 2 7 30% 13604 90008 14886 42%
c d 35.68 30 239 0 29 9326 26 104714 14176 3.7 32 8 2 7 30% 13550 90008 14886 42%
c u 35.81 30 239 0 29 9326 26 104714 13412 3.7 32 8 2 7 30% 13555 90008 14886 42%
c v 35.89 30 239 0 29 9326 26 104714 13055 3.7 32 8 2 7 30% 13556 90008 14886 42%
c w 36.16 30 239 0 29 9326 26 104714 13033 3.7 32 8 2 7 30% 13556 90008 14886 42%
c x 36.30 30 239 0 29 9326 26 104714 13032 3.7 32 8 2 7 30% 13559 89425 14886 42%
c = 37.10 30 239 0 29 9326 26 104714 13032 3.7 32 8 2 7 30% 13629 89425 14851 42%
c d 37.11 30 239 0 29 9326 26 104714 13018 3.7 32 8 2 7 30% 13551 89425 14849 42%
c t 37.15 30 239 0 29 9326 26 104714 13018 3.7 32 8 2 7 30% 13489 89425 14849 42%
c f 37.17 30 239 0 29 9326 26 104714 13018 3.7 32 8 2 7 30% 13486 89419 14850 42%
c - 38.09 30 236 0 30 9611 25 107624 13703 3.7 31 8 2 7 30% 13502 89419 14850 42%
c o 38.62 30 235 0 30 9781 25 110065 15736 3.7 31 8 2 7 30% 13523 89419 14850 42%
c - 39.87 30 231 0 31 10129 25 113101 15237 3.7 32 9 1 6 30% 13531 89418 14850 42%
c - 42.01 30 226 0 32 10774 26 118669 17016 3.7 32 9 1 6 30% 13560 89417 14850 42%
c - 44.02 30 222 0 33 11369 26 124326 18366 3.7 32 9 1 6 31% 13588 89416 14850 42%
c - 45.94 30 218 0 34 11975 25 130071 19662 3.7 33 9 1 6 31% 13642 89413 14850 42%
c c 47.06 30 215 0 34 12260 25 132940 22390 3.7 33 9 1 6 31% 13674 89223 14815 42%
c d 47.07 30 215 0 34 12260 25 132940 22266 3.7 33 9 1 6 31% 13604 89223 14815 42%
c u 47.25 30 215 0 34 12260 25 132940 19703 3.7 33 9 1 6 31% 13611 89223 14815 42%
c
c  seconds   switched      rate          size/glue tier1    binary          remaining
c         MB   reductions    conflicts         size  tier2      irredundant
c           level   restarts        redundant    glue   trail          variables
c
c v 47.48 30 215 0 34 12260 25 132940 16432 3.7 33 9 1 6 31% 13617 89223 14815 42%
c w 47.61 30 215 0 34 12260 25 132940 16427 3.7 33 9 1 6 31% 13617 89223 14815 42%
c x 47.79 30 215 0 34 12260 25 132940 16427 3.7 33 9 1 6 31% 13627 89087 14815 42%
c = 48.73 30 215 0 34 12260 25 132940 16427 3.7 33 9 1 6 31% 13635 89087 14811 42%
c d 48.75 30 215 0 34 12260 25 132940 16423 3.7 33 9 1 6 31% 13621 89087 14809 42%
c t 48.78 30 215 0 34 12260 25 132940 16423 3.7 33 9 1 6 31% 13586 89087 14809 42%
c f 48.80 30 215 0 34 12260 25 132940 16423 3.7 33 9 1 6 31% 13587 89069 14810 42%
c c 48.88 30 215 0 34 12260 25 132940 16421 3.7 33 9 1 6 31% 13593 89057 14809 42%
c d 48.89 30 215 0 34 12260 25 132940 16421 3.7 33 9 1 6 31% 13591 89057 14809 42%
c u 49.02 30 215 0 34 12260 25 132940 15820 3.7 33 9 1 6 31% 13593 89057 14809 42%
c v 49.17 30 215 0 34 12260 25 132940 15080 3.7 33 9 1 6 31% 13595 89057 14809 42%
c w 49.69 30 215 0 34 12260 25 132940 14886 3.7 33 9 1 6 31% 13595 89057 14809 42%
c d 50.62 30 215 0 34 12260 25 132940 14882 3.7 33 9 1 6 31% 13593 89057 14808 42%
c t 50.65 30 215 0 34 12260 25 132940 14882 3.7 33 9 1 6 31% 13587 89057 14808 42%
c - 51.61 30 213 0 35 12523 25 135901 14828 3.6 33 9 1 6 31% 13623 89054 14808 42%
c - 53.45 30 209 0 36 13054 25 141817 17200 3.6 33 9 1 6 31% 13656 89053 14808 42%
c - 54.85 30 204 0 37 13425 24 147817 19085 3.6 33 9 1 6 31% 13754 89050 14808 42%
c - 56.87 30 200 0 38 14015 24 153899 20754 3.6 34 9 1 6 31% 13783 89049 14808 42%
c s 58.23 30 198 0 38 14410 24 157996 24638 3.6 34 9 1 6 31% 13803 88012 14808 42%
c e 58.44 30 198 0 38 14410 24 157996 24638 3.6 34 9 1 6 31% 10433 103590 12742 36%
c
c  seconds   switched      rate          size/glue tier1    binary           remaining
c         MB   reductions    conflicts         size  tier2      irredundant
c           level   restarts        redundant    glue   trail           variables
c
c 2 58.44 30 198 0 38 14410 24 157996 24638 3.6 34 9 1 6 31% 10427 103590 12742 36%
c s 58.49 30 198 0 38 14410 24 157996 24638 3.6 34 9 1 6 31% 10663 100122 12742 36%
c e 58.55 30 198 0 38 14410 24 157996 24638 3.6 34 9 1 6 31% 10495 101089 12608 36%
c ^ 58.55 30 198 0 38 14410 24 157996 24638 3.6 34 9 1 6 31% 10495 101089 12608 36%
c - 59.32 30 197 0 39 14652 24 160063 16862 3.6 34 10 1 6 31% 10501 101089 12608 36%
c o 59.33 30 197 0 39 14653 24 160084 16883 3.6 34 10 1 6 31% 10501 101089 12608 36%
c i 60.21 30 196 0 39 14947 24 162531 19172 3.6 34 10 1 6 31% 10516 101089 12607 36%
c d 61.10 30 195 0 39 15202 24 164891 21348 3.6 34 10 1 6 31% 10520 101071 12606 36%
c u 61.30 30 195 0 39 15202 24 164891 18907 3.6 34 10 1 6 31% 10550 101071 12606 36%
c v 61.51 30 195 0 39 15202 24 164891 16110 3.6 34 10 1 6 31% 10562 101071 12606 36%
c w 61.67 30 195 0 39 15202 24 164891 16110 3.6 34 10 1 6 31% 10562 101071 12606 36%
c x 61.85 30 195 0 39 15202 24 164891 16108 3.6 34 10 1 6 31% 10584 100796 12606 36%
c d 61.86 30 195 0 39 15202 24 164891 16104 3.6 34 10 1 6 31% 10582 100796 12605 36%
c t 61.89 30 195 0 39 15202 24 164891 16104 3.6 34 10 1 6 31% 10371 100796 12605 36%
c f 62.08 30 195 0 39 15202 24 164891 16104 3.6 34 10 1 6 31% 10410 99664 12658 36%
c u 62.29 30 195 0 39 15202 24 164891 15615 3.6 34 10 1 6 31% 10502 99664 12658 36%
c v 62.43 30 195 0 39 15202 24 164891 15184 3.6 34 10 1 6 31% 10505 99664 12658 36%
c w 62.78 30 195 0 39 15202 24 164891 15163 3.6 34 10 1 6 31% 10505 99664 12658 36%
c x 62.97 30 195 0 39 15202 24 164891 15161 3.6 34 10 1 6 31% 10556 99463 12658 36%
c = 63.94 30 195 0 39 15202 24 164891 15161 3.6 34 10 1 6 31% 10564 99463 12654 36%
c
c  seconds   switched      rate          size/glue  tier1    binary          remaining
c         MB   reductions    conflicts         size   tier2      irredundant
c           level   restarts        redundant     glue   trail          variables
c
c d 63.95 30 195 0 39 15202 24 164891 15160 3.6 34 10 1 6 31% 10554 99463 12654 36%
c t 63.99 30 195 0 39 15202 24 164891 15160 3.6 34 10 1 6 31% 10472 99463 12654 36%
c f 64.01 30 195 0 39 15202 24 164891 15160 3.6 34 10 1 6 31% 10465 99453 12655 36%
c i 64.40 30 194 0 39 15320 24 166146 16309 3.5 34 10 1 6 31% 10485 99453 12654 36%
c - 64.46 30 194 0 40 15335 24 166307 13550 3.5 34 10 1 5 31% 10479 99453 12654 36%
c i 65.59 30 192 0 40 15681 24 170888 17780 3.5 34 10 1 5 31% 10516 99453 12653 36%
c - 66.05 30 191 0 41 15831 24 172631 16173 3.5 34 10 1 6 31% 10514 99453 12653 36%
c i 67.05 30 188 0 41 16155 24 176287 19632 3.5 34 10 1 6 31% 10522 99453 12652 36%
c - 68.10 30 187 0 42 16467 24 179035 18549 3.5 34 10 1 5 31% 10527 99453 12652 36%
c - 69.41 30 183 0 43 17013 23 185515 20278 3.4 34 10 1 5 31% 10540 99453 12652 36%
c - 70.38 30 180 0 44 17451 23 192072 21423 3.4 34 10 1 5 31% 10579 99453 12652 36%
c i 70.58 30 180 0 44 17548 23 193276 22526 3.4 34 10 1 5 31% 10588 99453 12651 36%
c i 70.88 30 179 0 44 17692 23 194583 23731 3.4 34 10 1 5 31% 10599 99453 12650 36%
c i 70.93 30 178 0 44 17710 23 195329 24366 3.3 34 10 1 5 31% 10616 99452 12649 36%
c i 71.30 30 177 0 44 17882 22 197206 26163 3.3 34 10 1 5 31% 10624 99452 12648 36%
c - 71.59 30 176 0 45 18015 22 198705 22247 3.3 33 10 1 5 31% 10611 99452 12648 36%
c d 71.94 30 176 0 45 18213 22 200677 24074 3.3 34 10 1 5 31% 10619 99340 12647 36%
c u 72.03 30 176 0 45 18213 22 200677 21785 3.3 34 10 1 5 31% 10663 99340 12647 36%
c v 72.10 30 176 0 45 18213 22 200677 19229 3.3 34 10 1 5 31% 10668 99340 12647 36%
c w 72.15 30 176 0 45 18213 22 200677 19228 3.3 34 10 1 5 31% 10668 99340 12647 36%
c
c  seconds   switched      rate          size/glue  tier1    binary          remaining
c         MB   reductions    conflicts         size   tier2      irredundant
c           level   restarts        redundant     glue   trail          variables
c
c x 72.36 30 176 0 45 18213 22 200677 19221 3.3 34 10 1 5 31% 10761 99037 12647 36%
c t 73.39 30 176 0 45 18213 22 200677 19221 3.3 34 10 1 5 31% 10666 99037 12647 36%
c u 73.62 30 176 0 45 18213 22 200677 18250 3.3 34 10 1 5 31% 10689 99037 12647 36%
c v 73.80 30 176 0 45 18213 22 200677 16724 3.3 34 10 1 5 31% 10705 99037 12647 36%
c w 74.01 30 176 0 45 18213 22 200677 16697 3.3 34 10 1 5 31% 10705 99037 12647 36%
c x 74.22 30 176 0 45 18213 22 200677 16691 3.3 34 10 1 5 31% 10812 98413 12647 36%
c t 74.26 30 176 0 45 18213 22 200677 16691 3.3 34 10 1 5 31% 10750 98413 12647 36%
c i 76.12 30 175 0 45 18806 23 205258 21088 3.3 34 10 1 5 31% 10761 98413 12646 36%
c - 76.15 30 175 0 46 18826 23 205413 17281 3.3 34 10 1 5 31% 10757 98413 12646 36%
c i 76.95 30 174 0 46 19139 23 208521 20218 3.3 35 10 1 5 31% 10763 98413 12645 36%
c i 77.38 30 173 0 46 19240 23 209973 21596 3.3 34 10 1 5 31% 10773 98413 12644 36%
c i 77.67 30 173 0 46 19332 22 210925 22489 3.3 35 10 1 5 31% 10778 98413 12643 36%
c - 78.04 30 172 0 47 19417 22 212196 19505 3.3 35 10 1 5 31% 10761 98413 12643 36%
c i 78.40 30 171 0 47 19498 22 214301 21392 3.3 34 10 1 5 31% 10791 98413 12642 36%
c i 79.06 30 169 0 47 19673 22 216987 23922 3.3 34 10 1 5 31% 10797 98413 12641 36%
c - 79.91 30 168 0 48 19921 22 219051 21200 3.3 34 11 1 5 31% 10790 98413 12641 36%
c o 80.27 30 168 0 48 20049 22 220084 22175 3.3 34 11 1 5 31% 10795 98413 12641 36%
c - 82.30 30 166 0 49 20626 22 225979 22464 3.2 35 11 1 5 31% 10813 98413 12641 36%
c i 83.13 30 165 0 49 20878 22 228423 24774 3.2 35 11 1 5 31% 10836 98413 12640 36%
c i 83.54 30 164 0 49 20985 21 231011 27182 3.2 34 11 1 5 31% 10849 98412 12639 36%
c
c  seconds   switched      rate          size/glue  tier1    binary          remaining
c         MB   reductions    conflicts         size   tier2      irredundant
c           level   restarts        redundant     glue   trail          variables
c
c i 83.57 30 163 0 49 20993 21 231287 27397 3.2 34 11 1 5 31% 10872 98412 12638 36%
c - 83.85 30 162 0 50 21056 21 232979 23505 3.2 34 11 1 5 31% 10856 98412 12638 36%
c i 85.02 30 160 0 50 21353 21 237842 27994 3.2 34 11 1 5 31% 10877 98412 12634 36%
c - 85.60 30 160 0 51 21532 21 240050 24333 3.2 34 11 1 5 31% 10886 98412 12634 36%
c s 85.64 30 160 0 51 21538 21 240129 24411 3.2 34 11 1 5 31% 10924 97001 12634 36%
c e 85.88 31 160 0 51 21538 21 240129 24411 3.2 34 11 1 5 31% 7415 126543 10137 29%
c 2 85.88 31 160 0 51 21538 21 240129 24411 3.2 34 11 1 5 31% 7406 126543 10137 29%
c s 85.94 31 160 0 51 21538 21 240129 24411 3.2 34 11 1 5 31% 7585 119340 10137 29%
c e 86.02 31 160 0 51 21538 21 240129 24411 3.2 34 11 1 5 31% 7461 121587 9954 28%
c ! 86.02 31 160 0 51 21538 21 240129 24411 3.2 34 11 1 5 31% 7461 121587 9954 28%
c u 86.21 31 160 0 51 21551 21 240339 12139 3.2 34 11 1 5 31% 7604 121587 9954 28%
c v 86.30 31 160 0 51 21551 21 240339 9717 3.2 34 11 1 5 31% 7617 121587 9954 28%
c w 86.33 31 160 0 51 21551 21 240339 9538 3.2 34 11 1 5 31% 7617 121587 9954 28%
c x 86.76 31 160 0 51 21551 21 240339 9500 3.2 34 11 1 5 31% 7738 117840 9954 28%
c = 87.64 31 160 0 51 21551 21 240339 9500 3.2 34 11 1 5 31% 7768 117704 9935 28%
c d 87.65 31 160 0 51 21551 21 240339 9487 3.2 34 11 1 5 31% 7724 117704 9935 28%
c t 87.67 31 160 0 51 21551 21 240339 9487 3.2 34 11 1 5 31% 7206 117704 9935 28%
c f 87.85 31 160 0 51 21551 21 240339 9487 3.2 34 11 1 5 31% 7209 114020 10042 28%
c u 87.92 31 160 0 51 21551 21 240339 9130 3.2 34 11 1 5 31% 7224 114020 10042 28%
c v 87.97 31 160 0 51 21551 21 240339 8847 3.2 34 11 1 5 31% 7225 114020 10042 28%
c
c  seconds   switched      rate         size/glue  tier1    binary          remaining
c         MB   reductions    conflicts        size   tier2     irredundant
c           level   restarts       redundant     glue   trail          variables
c
c w 87.99 31 160 0 51 21551 21 240339 8830 3.2 34 11 1 5 31% 7225 114020 10042 28%
c x 88.30 31 160 0 51 21551 21 240339 8806 3.2 34 11 1 5 31% 7265 112568 10042 28%
c = 89.03 31 160 0 51 21551 21 240339 8806 3.2 34 11 1 5 31% 7267 112568 10041 28%
c d 89.04 31 160 0 51 21551 21 240339 8806 3.2 34 11 1 5 31% 7264 112568 10041 28%
c t 89.05 31 160 0 51 21551 21 240339 8806 3.2 34 11 1 5 31% 7227 112568 10041 28%
c f 89.17 31 160 0 51 21551 21 240339 8806 3.2 34 11 1 5 31% 7519 111957 10056 28%
c - 90.05 31 157 0 52 21901 20 247194 12063 3.1 33 11 1 6 31% 7527 111954 10056 28%
c - 91.07 39 155 0 53 22363 20 254405 15209 3.0 32 11 1 6 31% 7540 111952 10056 28%
c i 91.55 38 154 0 53 22606 20 257266 17879 3.0 32 11 1 6 30% 7550 111952 10055 28%
c i 92.16 38 153 0 53 22880 19 261288 21685 3.0 32 11 1 6 30% 7557 111952 10054 28%
c - 92.21 38 153 0 54 22898 19 261686 17061 3.0 32 11 1 6 30% 7539 111952 10054 28%
c i 92.31 41 152 0 54 22939 19 262319 17661 3.0 32 11 1 6 30% 7541 111952 10053 28%
c i 92.40 41 153 0 54 22965 19 263184 18437 3.0 32 11 1 6 30% 7550 111951 10052 28%
c i 92.52 41 152 0 54 23017 19 264129 19331 3.0 32 11 1 6 30% 7554 111951 10051 28%
c i 92.78 41 152 0 54 23123 19 265811 20928 3.0 32 11 1 6 30% 7554 111951 10050 28%
c i 92.78 41 152 0 54 23125 19 265827 20931 3.0 32 11 1 6 30% 7559 111951 10049 28%
c - 93.21 38 151 0 55 23312 19 269034 18194 2.9 31 11 1 6 30% 7539 111951 10049 28%
c i 93.41 38 151 0 55 23385 19 270908 19931 2.9 31 11 1 6 30% 7540 111951 10048 28%
c i 93.42 38 151 0 55 23390 19 271018 20018 2.9 31 11 1 6 30% 7545 111951 10047 28%
c - 94.17 41 149 0 56 23716 18 276451 19149 2.9 31 11 1 6 30% 7537 111950 10047 28%
c
c  seconds   switched      rate          size/glue  tier1    binary          remaining
c         MB   reductions    conflicts         size   tier2     irredundant
c           level   restarts        redundant     glue   trail          variables
c
c i 94.29 37 149 0 56 23775 18 277276 19911 2.9 31 11 1 6 30% 7538 111949 10046 28%
c i 94.45 38 149 0 56 23857 18 278407 20964 2.9 31 11 1 6 30% 7542 111949 10045 28%
c i 95.01 38 147 0 56 24073 18 282695 25004 2.8 30 11 1 6 30% 7550 111949 10044 28%
c - 95.22 39 147 0 57 24163 18 283935 19987 2.8 30 11 1 6 30% 7539 111949 10044 28%
c u 95.34 37 147 0 57 24168 18 284011 18403 2.8 30 11 1 6 30% 7574 111792 10044 28%
c v 95.46 37 147 0 57 24168 18 284011 15281 2.8 30 11 1 6 30% 7576 111792 10044 28%
c w 95.47 37 147 0 57 24168 18 284011 15276 2.8 30 11 1 6 30% 7576 111792 10044 28%
c x 95.59 37 147 0 57 24168 18 284011 15276 2.8 30 11 1 6 30% 7576 111625 10044 28%
c = 96.24 37 147 0 57 24168 18 284011 15276 2.8 30 11 1 6 30% 7586 111617 10039 28%
c d 96.25 37 147 0 57 24168 18 284011 15274 2.8 30 11 1 6 30% 7567 111617 10036 28%
c t 96.27 37 147 0 57 24168 18 284011 15274 2.8 30 11 1 6 30% 7514 111617 10036 28%
c f 96.40 33 147 0 57 24168 18 284011 15274 2.8 30 11 1 6 30% 7696 111239 10045 28%
c u 96.53 37 147 0 57 24168 18 284011 15028 2.8 30 11 1 6 30% 7702 111239 10044 28%
c v 96.67 37 147 0 57 24168 18 284011 12636 2.8 30 11 1 6 30% 7708 111239 10044 28%
c w 96.68 37 147 0 57 24168 18 284011 12635 2.8 30 11 1 6 30% 7708 111239 10044 28%
c = 97.32 37 147 0 57 24168 18 284011 12635 2.8 30 11 1 6 30% 7720 111220 10038 28%
c d 97.32 37 147 0 57 24168 18 284011 12635 2.8 30 11 1 6 30% 7704 111214 10037 28%
c t 97.34 37 147 0 57 24168 18 284011 12635 2.8 30 11 1 6 30% 7693 111214 10037 28%
c i 97.41 37 147 0 57 24168 18 284011 12635 2.8 30 11 1 6 30% 7693 111214 10037 28%
c i 97.41 37 147 0 57 24168 18 284036 12651 2.8 30 11 1 6 30% 7695 111214 10036 28%
c
c  seconds   switched      rate          size/glue  tier1    binary          remaining
c         MB   reductions    conflicts         size   tier2     irredundant
c           level   restarts        redundant     glue   trail          variables
c
c o 98.19 38 147 0 57 24463 18 290119 18438 2.8 30 11 1 6 30% 7702 111214 10036 28%
c - 98.33 40 146 0 58 24517 18 291484 15166 2.8 30 11 1 6 30% 7689 111214 10036 28%
c i 98.58 37 146 0 58 24616 17 293749 17288 2.8 29 11 1 6 30% 7699 111214 10035 28%
c i 98.75 38 145 0 58 24716 17 296136 19508 2.8 29 11 1 6 30% 7719 111214 10029 28%
c i 98.81 38 145 0 58 24741 17 297183 20456 2.8 29 11 1 6 30% 7728 111213 10028 28%
c i 98.82 38 144 0 58 24743 17 297797 21017 2.8 29 11 1 6 30% 7730 111212 10027 28%
c - 98.90 38 144 0 59 24766 17 299099 17202 2.8 29 11 1 6 30% 7670 111212 10027 28%
c i 98.96 38 143 0 59 24777 17 300464 18441 2.8 29 10 1 6 30% 7681 111212 10026 28%
c i 99.00 38 142 0 59 24785 17 301501 19348 2.8 29 10 1 6 30% 7690 111211 10024 28%
c i 99.14 38 138 0 59 24824 16 306040 23040 2.7 28 10 1 6 29% 7745 111195 10023 28%
c - 99.18 38 138 0 60 24832 16 306780 17530 2.7 28 10 1 6 29% 7740 111195 10023 28%
c i 99.19 38 138 0 60 24844 16 306995 17679 2.7 28 10 1 6 29% 7746 111195 10022 28%
c i 99.19 38 138 0 60 24844 16 307072 17725 2.7 28 10 1 6 29% 7750 111195 10021 28%
c i 99.20 38 138 0 60 24844 16 307135 17757 2.7 28 10 1 6 29% 7756 111195 10020 28%
c i 99.20 38 138 0 60 24844 16 307151 17760 2.7 28 10 1 6 29% 7759 111195 10000 28%
c i 99.20 38 138 0 60 24844 16 307168 17770 2.7 28 10 1 6 29% 7761 111195 9977 28%
c i 99.20 38 138 0 60 24844 16 307179 17770 2.7 28 10 1 6 29% 7764 111195 9951 28%
c i 99.20 38 138 0 60 24844 16 307181 17770 2.7 28 10 1 6 29% 7765 111195 9946 28%
c } 99.20 38 138 0 60 24844 16 307183 17770 2.7 28 10 1 6 29% 7765 111195 9911 28%
c 0 99.20 38 138 0 60 24844 16 307183 17770 2.7 28 10 1 6 29% 7765 111195 9911 28%
c
c ---- [ result ] ------------------------------------------------------------
c
s UNSATISFIABLE
c
c ---- [ profiling ] ---------------------------------------------------------
c
c          70.92   71.49 %  search
c          70.92   71.49 %  focused
c          27.77   27.99 %  simplify
c          26.41   26.62 %  probe
c          12.08   12.18 %  sweep
c          10.04   10.13 %  vivify
c           1.71    1.72 %  factor
c           1.61    1.63 %  eliminate
c           1.01    1.02 %  substitute
c           0.94    0.95 %  congruence
c           0.45    0.45 %  transitive
c           0.44    0.45 %  preprocess
c           0.38    0.38 %  reduce
c           0.32    0.32 %  subsume
c           0.19    0.19 %  fastel
c           0.17    0.17 %  backbone
c           0.04    0.04 %  parse
c           0.03    0.03 %  lucky
c =============================================
c          99.20  100.00 %  total
c
c ---- [ statistics ] --------------------------------------------------------
c
c chronological:                         7983                3 %  conflicts
c conflicts:                           307183             3096.67 per second
c congruent:                             2557                7 %  variables
c decisions:                          6077352               19.78 per conflict
c eliminated:                           24369               69 %  variables
c factored:                              7420               21 %  variables
c fast_eliminated:                      11665               48 %  eliminated
c fast_strengthened:                      665                6 %  per strengthened
c fast_subsumed:                          384                1 %  per subsumed
c iterations:                              46                0 %  variables
c propagations:                     332236545          3349227    per second
c reductions:                              60             5120    interval
c reordered:                                8            38398    interval
c restarts:                             24844               12    interval
c strengthened:                         11761                0 %  checks
c substituted:                           8440               24 %  variables
c subsumed:                             47618                0 %  checks
c switched:                                 0                0    interval
c vivified:                             95969               19 %  checks
c
c ---- [ glue usage ] --------------------------------------------------------
c
c focused glue 1   used 568211 clauses 60.84% accumulated 60.84% tier1
c focused glue 2   used 148576 clauses 15.91% accumulated 76.75%
c focused glue 3-4 used  91242 clauses  9.77% accumulated 86.52%
c focused glue 5   used  23373 clauses  2.50% accumulated 89.02%
c focused glue 6   used  16787 clauses  1.80% accumulated 90.82% tier2
c
c ---- [ resources ] ---------------------------------------------------------
c
c maximum-resident-set-size:         42680320 bytes         41 MB
c process-time:                         1m 39s              99.20 seconds
c
c ---- [ shutting down ] -----------------------------------------------------
c
c exit 20
